solution status: optimal solution found
objective value:                                   18
x32                                                 1 	(obj:1)
x33                                                 1 	(obj:1)
x34                                                 1 	(obj:1)
x35                                                 1 	(obj:1)
x36                                                 1 	(obj:1)
x42                                                 1 	(obj:1)
x45                                                 1 	(obj:1)
x46                                                 1 	(obj:1)
x47                                                 1 	(obj:1)
x48                                                 1 	(obj:1)
x49                                                 1 	(obj:1)
x50                                                 1 	(obj:1)
x51                                                 1 	(obj:1)
x52                                                 1 	(obj:1)
x53                                                 1 	(obj:1)
x54                                                 1 	(obj:1)
x55                                                 1 	(obj:1)
x56                                                 1 	(obj:1)
one.thingy.devices[0].thingy.column_upper_y                    1 	(obj:0)
one.thingy.devices[0].thingy.column_upper_z                    8 	(obj:0)
one.pump_b[0].hole_y                               -3 	(obj:0)
one.pump_b[0].hole_z                                4 	(obj:0)
one.thingy.devices[1].thingy.column_upper_y                    4 	(obj:0)
one.thingy.devices[1].thingy.column_upper_z                    8 	(obj:0)
one.pump_a[0].hole_y                               -2 	(obj:0)
one.pump_a[0].hole_z                                6 	(obj:0)
one.pump_a[0].flush_y                               4 	(obj:0)
one.thingy.devices[3].thingy.column_upper_y                    9 	(obj:0)
one.thingy.devices[3].thingy.column_upper_z                    3 	(obj:0)
one.thingy.devices[2].thingy.column_upper_y                    6 	(obj:0)
one.thingy.devices[2].thingy.column_upper_z                    7 	(obj:0)
one.thingy.devices[3].thingy.vp1_y                    8 	(obj:0)
one.thingy.devices[3].thingy.vp1_z                    3 	(obj:0)
one.thingy.devices[0].thingy.vp1_y                    2 	(obj:0)
one.thingy.devices[0].thingy.vp1_z                   10 	(obj:0)
one.pump_b[0].flush_y                               5 	(obj:0)
one.pump_b[0].flush_z                              -1 	(obj:0)
one.thingy.devices[1].thingy.vp1_y                    5 	(obj:0)
one.thingy.devices[1].thingy.vp1_z                   11 	(obj:0)
one.thingy.devices[2].thingy.vp1_y                    9 	(obj:0)
one.thingy.devices[2].thingy.vp1_z                    7 	(obj:0)
